# Solution for model mip_queue_model
# Objective value = 21
c(0,0,0,0) 2
q(0,0,0,0) 8
c(0,0,0,1) 0
q(0,0,0,1) 0
c(0,0,0,2) 0
q(0,0,0,2) 0
c(0,0,0,3) 0
q(0,0,0,3) 0
c(0,0,0,4) 0
q(0,0,0,4) 0
c(0,0,0,5) 0
q(0,0,0,5) 0
c(0,0,0,6) 0
q(0,0,0,6) 0
c(0,0,0,7) 0
q(0,0,0,7) 0
c(0,0,0,8) 0
q(0,0,0,8) 0
c(0,0,0,9) 0
q(0,0,0,9) 0
c(0,0,1,1) 0
q(0,0,1,1) 0
c(0,0,1,2) 0
q(0,0,1,2) 0
c(0,0,1,3) 0
q(0,0,1,3) 0
c(0,0,1,4) 0
q(0,0,1,4) 0
c(0,0,1,5) 0
q(0,0,1,5) 0
c(0,0,1,6) 0
q(0,0,1,6) 0
c(0,0,1,7) 0
q(0,0,1,7) 0
c(0,0,1,8) 0
q(0,0,1,8) 0
c(0,0,1,9) 0
q(0,0,1,9) 0
c(0,0,2,2) 0
q(0,0,2,2) 0
c(0,0,2,3) 0
q(0,0,2,3) 0
c(0,0,2,4) 0
q(0,0,2,4) 0
c(0,0,2,5) 0
q(0,0,2,5) 0
c(0,0,2,6) 0
q(0,0,2,6) 0
c(0,0,2,7) 0
q(0,0,2,7) 0
c(0,0,2,8) 0
q(0,0,2,8) 0
c(0,0,2,9) 0
q(0,0,2,9) 0
c(0,0,3,3) 0
q(0,0,3,3) 0
c(0,0,3,4) 0
q(0,0,3,4) 0
c(0,0,3,5) 0
q(0,0,3,5) 0
c(0,0,3,6) 0
q(0,0,3,6) 0
c(0,0,3,7) 0
q(0,0,3,7) 0
c(0,0,3,8) 0
q(0,0,3,8) 0
c(0,0,3,9) 0
q(0,0,3,9) 0
c(0,0,4,4) 0
q(0,0,4,4) 0
c(0,0,4,5) 0
q(0,0,4,5) 0
c(0,0,4,6) 0
q(0,0,4,6) 0
c(0,0,4,7) 0
q(0,0,4,7) 0
c(0,0,4,8) 0
q(0,0,4,8) 0
c(0,0,4,9) 0
q(0,0,4,9) 0
c(0,0,5,5) 0
q(0,0,5,5) 0
c(0,0,5,6) 0
q(0,0,5,6) 0
c(0,0,5,7) 0
q(0,0,5,7) 0
c(0,0,5,8) 0
q(0,0,5,8) 0
c(0,0,5,9) 0
q(0,0,5,9) 0
c(0,0,6,6) 0
q(0,0,6,6) 0
c(0,0,6,7) 0
q(0,0,6,7) 0
c(0,0,6,8) 0
q(0,0,6,8) 0
c(0,0,6,9) 0
q(0,0,6,9) 0
c(0,0,7,7) 0
q(0,0,7,7) 0
c(0,0,7,8) 0
q(0,0,7,8) 0
c(0,0,7,9) 0
q(0,0,7,9) 0
c(0,0,8,8) 0
q(0,0,8,8) 0
c(0,0,8,9) 0
q(0,0,8,9) 0
c(0,0,9,9) 0
q(0,0,9,9) 0
c(0,1,0,0) 0
q(0,1,0,0) 0
c(0,1,0,1) 0
q(0,1,0,1) 0
c(0,1,0,2) 0
q(0,1,0,2) 0
c(0,1,0,3) 0
q(0,1,0,3) 0
c(0,1,0,4) 0
q(0,1,0,4) 0
c(0,1,0,5) 0
q(0,1,0,5) 0
c(0,1,0,6) 0
q(0,1,0,6) 0
c(0,1,0,7) 0
q(0,1,0,7) 0
c(0,1,0,8) 0
q(0,1,0,8) 0
c(0,1,0,9) 0
q(0,1,0,9) 0
c(0,1,1,1) 2
q(0,1,1,1) 6
c(0,1,1,2) 0
q(0,1,1,2) 0
c(0,1,1,3) 0
q(0,1,1,3) 0
c(0,1,1,4) 0
q(0,1,1,4) 0
c(0,1,1,5) 0
q(0,1,1,5) 0
c(0,1,1,6) 0
q(0,1,1,6) 0
c(0,1,1,7) 0
q(0,1,1,7) 0
c(0,1,1,8) 0
q(0,1,1,8) 0
c(0,1,1,9) 0
q(0,1,1,9) 0
c(0,1,2,2) 0
q(0,1,2,2) 0
c(0,1,2,3) 0
q(0,1,2,3) 0
c(0,1,2,4) 0
q(0,1,2,4) 0
c(0,1,2,5) 0
q(0,1,2,5) 0
c(0,1,2,6) 0
q(0,1,2,6) 0
c(0,1,2,7) 0
q(0,1,2,7) 0
c(0,1,2,8) 0
q(0,1,2,8) 0
c(0,1,2,9) 0
q(0,1,2,9) 0
c(0,1,3,3) 0
q(0,1,3,3) 0
c(0,1,3,4) 0
q(0,1,3,4) 0
c(0,1,3,5) 0
q(0,1,3,5) 0
c(0,1,3,6) 0
q(0,1,3,6) 0
c(0,1,3,7) 0
q(0,1,3,7) 0
c(0,1,3,8) 0
q(0,1,3,8) 0
c(0,1,3,9) 0
q(0,1,3,9) 0
c(0,1,4,4) 0
q(0,1,4,4) 0
c(0,1,4,5) 0
q(0,1,4,5) 0
c(0,1,4,6) 0
q(0,1,4,6) 0
c(0,1,4,7) 0
q(0,1,4,7) 0
c(0,1,4,8) 0
q(0,1,4,8) 0
c(0,1,4,9) 0
q(0,1,4,9) 0
c(0,1,5,5) 0
q(0,1,5,5) 0
c(0,1,5,6) 0
q(0,1,5,6) 0
c(0,1,5,7) 0
q(0,1,5,7) 0
c(0,1,5,8) 0
q(0,1,5,8) 0
c(0,1,5,9) 0
q(0,1,5,9) 0
c(0,1,6,6) 0
q(0,1,6,6) 0
c(0,1,6,7) 0
q(0,1,6,7) 0
c(0,1,6,8) 0
q(0,1,6,8) 0
c(0,1,6,9) 0
q(0,1,6,9) 0
c(0,1,7,7) 0
q(0,1,7,7) 0
c(0,1,7,8) 0
q(0,1,7,8) 0
c(0,1,7,9) 0
q(0,1,7,9) 0
c(0,1,8,8) 0
q(0,1,8,8) 0
c(0,1,8,9) 0
q(0,1,8,9) 0
c(0,1,9,9) 0
q(0,1,9,9) 0
c(0,2,0,0) 0
q(0,2,0,0) 0
c(0,2,0,1) 0
q(0,2,0,1) 0
c(0,2,0,2) 0
q(0,2,0,2) 0
c(0,2,0,3) 0
q(0,2,0,3) 0
c(0,2,0,4) 0
q(0,2,0,4) 0
c(0,2,0,5) 0
q(0,2,0,5) 0
c(0,2,0,6) 0
q(0,2,0,6) 0
c(0,2,0,7) 0
q(0,2,0,7) 0
c(0,2,0,8) 0
q(0,2,0,8) 0
c(0,2,0,9) 0
q(0,2,0,9) 0
c(0,2,1,1) 0
q(0,2,1,1) 0
c(0,2,1,2) 0
q(0,2,1,2) 0
c(0,2,1,3) 0
q(0,2,1,3) 0
c(0,2,1,4) 0
q(0,2,1,4) 0
c(0,2,1,5) 0
q(0,2,1,5) 0
c(0,2,1,6) 0
q(0,2,1,6) 0
c(0,2,1,7) 0
q(0,2,1,7) 0
c(0,2,1,8) 0
q(0,2,1,8) 0
c(0,2,1,9) 0
q(0,2,1,9) 0
c(0,2,2,2) 2
q(0,2,2,2) 4
c(0,2,2,3) 0
q(0,2,2,3) 0
c(0,2,2,4) 0
q(0,2,2,4) 0
c(0,2,2,5) 0
q(0,2,2,5) 0
c(0,2,2,6) 0
q(0,2,2,6) 0
c(0,2,2,7) 0
q(0,2,2,7) 0
c(0,2,2,8) 0
q(0,2,2,8) 0
c(0,2,2,9) 0
q(0,2,2,9) 0
c(0,2,3,3) 0
q(0,2,3,3) 0
c(0,2,3,4) 0
q(0,2,3,4) 0
c(0,2,3,5) 0
q(0,2,3,5) 0
c(0,2,3,6) 0
q(0,2,3,6) 0
c(0,2,3,7) 0
q(0,2,3,7) 0
c(0,2,3,8) 0
q(0,2,3,8) 0
c(0,2,3,9) 0
q(0,2,3,9) 0
c(0,2,4,4) 0
q(0,2,4,4) 0
c(0,2,4,5) 0
q(0,2,4,5) 0
c(0,2,4,6) 0
q(0,2,4,6) 0
c(0,2,4,7) 0
q(0,2,4,7) 0
c(0,2,4,8) 0
q(0,2,4,8) 0
c(0,2,4,9) 0
q(0,2,4,9) 0
c(0,2,5,5) 0
q(0,2,5,5) 0
c(0,2,5,6) 0
q(0,2,5,6) 0
c(0,2,5,7) 0
q(0,2,5,7) 0
c(0,2,5,8) 0
q(0,2,5,8) 0
c(0,2,5,9) 0
q(0,2,5,9) 0
c(0,2,6,6) 0
q(0,2,6,6) 0
c(0,2,6,7) 0
q(0,2,6,7) 0
c(0,2,6,8) 0
q(0,2,6,8) 0
c(0,2,6,9) 0
q(0,2,6,9) 0
c(0,2,7,7) 0
q(0,2,7,7) 0
c(0,2,7,8) 0
q(0,2,7,8) 0
c(0,2,7,9) 0
q(0,2,7,9) 0
c(0,2,8,8) 0
q(0,2,8,8) 0
c(0,2,8,9) 0
q(0,2,8,9) 0
c(0,2,9,9) 0
q(0,2,9,9) 0
c(1,0,0,0) 2
q(1,0,0,0) 5
c(1,0,0,1) 0
q(1,0,0,1) 0
c(1,0,0,2) 0
q(1,0,0,2) 0
c(1,0,0,3) 0
q(1,0,0,3) 0
c(1,0,0,4) 0
q(1,0,0,4) 0
c(1,0,0,5) 0
q(1,0,0,5) 0
c(1,0,0,6) 0
q(1,0,0,6) 0
c(1,0,0,7) 0
q(1,0,0,7) 0
c(1,0,0,8) 0
q(1,0,0,8) 0
c(1,0,0,9) 0
q(1,0,0,9) 0
c(1,0,1,1) 0
q(1,0,1,1) 0
c(1,0,1,2) 0
q(1,0,1,2) 0
c(1,0,1,3) 0
q(1,0,1,3) 0
c(1,0,1,4) 0
q(1,0,1,4) 0
c(1,0,1,5) 0
q(1,0,1,5) 0
c(1,0,1,6) 0
q(1,0,1,6) 0
c(1,0,1,7) 0
q(1,0,1,7) 0
c(1,0,1,8) 0
q(1,0,1,8) 0
c(1,0,1,9) 0
q(1,0,1,9) 0
c(1,0,2,2) 0
q(1,0,2,2) 0
c(1,0,2,3) 0
q(1,0,2,3) 0
c(1,0,2,4) 0
q(1,0,2,4) 0
c(1,0,2,5) 0
q(1,0,2,5) 0
c(1,0,2,6) 0
q(1,0,2,6) 0
c(1,0,2,7) 0
q(1,0,2,7) 0
c(1,0,2,8) 0
q(1,0,2,8) 0
c(1,0,2,9) 0
q(1,0,2,9) 0
c(1,0,3,3) 0
q(1,0,3,3) 0
c(1,0,3,4) 0
q(1,0,3,4) 0
c(1,0,3,5) 0
q(1,0,3,5) 0
c(1,0,3,6) 0
q(1,0,3,6) 0
c(1,0,3,7) 0
q(1,0,3,7) 0
c(1,0,3,8) 0
q(1,0,3,8) 0
c(1,0,3,9) 0
q(1,0,3,9) 0
c(1,0,4,4) 0
q(1,0,4,4) 0
c(1,0,4,5) 0
q(1,0,4,5) 0
c(1,0,4,6) 0
q(1,0,4,6) 0
c(1,0,4,7) 0
q(1,0,4,7) 0
c(1,0,4,8) 0
q(1,0,4,8) 0
c(1,0,4,9) 0
q(1,0,4,9) 0
c(1,0,5,5) 0
q(1,0,5,5) 0
c(1,0,5,6) 0
q(1,0,5,6) 0
c(1,0,5,7) 0
q(1,0,5,7) 0
c(1,0,5,8) 0
q(1,0,5,8) 0
c(1,0,5,9) 0
q(1,0,5,9) 0
c(1,0,6,6) 0
q(1,0,6,6) 0
c(1,0,6,7) 0
q(1,0,6,7) 0
c(1,0,6,8) 0
q(1,0,6,8) 0
c(1,0,6,9) 0
q(1,0,6,9) 0
c(1,0,7,7) 0
q(1,0,7,7) 0
c(1,0,7,8) 0
q(1,0,7,8) 0
c(1,0,7,9) 0
q(1,0,7,9) 0
c(1,0,8,8) 0
q(1,0,8,8) 0
c(1,0,8,9) 0
q(1,0,8,9) 0
c(1,0,9,9) 0
q(1,0,9,9) 0
c(1,1,0,0) 0
q(1,1,0,0) 2
c(1,1,0,1) 0
q(1,1,0,1) 0
c(1,1,0,2) 0
q(1,1,0,2) 0
c(1,1,0,3) 0
q(1,1,0,3) 0
c(1,1,0,4) 0
q(1,1,0,4) 0
c(1,1,0,5) 0
q(1,1,0,5) 0
c(1,1,0,6) 0
q(1,1,0,6) 0
c(1,1,0,7) 0
q(1,1,0,7) 0
c(1,1,0,8) 0
q(1,1,0,8) 0
c(1,1,0,9) 0
q(1,1,0,9) 0
c(1,1,1,1) 2
q(1,1,1,1) 3
c(1,1,1,2) 0
q(1,1,1,2) 0
c(1,1,1,3) 0
q(1,1,1,3) 0
c(1,1,1,4) 0
q(1,1,1,4) 0
c(1,1,1,5) 0
q(1,1,1,5) 0
c(1,1,1,6) 0
q(1,1,1,6) 0
c(1,1,1,7) 0
q(1,1,1,7) 0
c(1,1,1,8) 0
q(1,1,1,8) 0
c(1,1,1,9) 0
q(1,1,1,9) 0
c(1,1,2,2) 0
q(1,1,2,2) 0
c(1,1,2,3) 0
q(1,1,2,3) 0
c(1,1,2,4) 0
q(1,1,2,4) 0
c(1,1,2,5) 0
q(1,1,2,5) 0
c(1,1,2,6) 0
q(1,1,2,6) 0
c(1,1,2,7) 0
q(1,1,2,7) 0
c(1,1,2,8) 0
q(1,1,2,8) 0
c(1,1,2,9) 0
q(1,1,2,9) 0
c(1,1,3,3) 0
q(1,1,3,3) 0
c(1,1,3,4) 0
q(1,1,3,4) 0
c(1,1,3,5) 0
q(1,1,3,5) 0
c(1,1,3,6) 0
q(1,1,3,6) 0
c(1,1,3,7) 0
q(1,1,3,7) 0
c(1,1,3,8) 0
q(1,1,3,8) 0
c(1,1,3,9) 0
q(1,1,3,9) 0
c(1,1,4,4) 0
q(1,1,4,4) 0
c(1,1,4,5) 0
q(1,1,4,5) 0
c(1,1,4,6) 0
q(1,1,4,6) 0
c(1,1,4,7) 0
q(1,1,4,7) 0
c(1,1,4,8) 0
q(1,1,4,8) 0
c(1,1,4,9) 0
q(1,1,4,9) 0
c(1,1,5,5) 0
q(1,1,5,5) 0
c(1,1,5,6) 0
q(1,1,5,6) 0
c(1,1,5,7) 0
q(1,1,5,7) 0
c(1,1,5,8) 0
q(1,1,5,8) 0
c(1,1,5,9) 0
q(1,1,5,9) 0
c(1,1,6,6) 0
q(1,1,6,6) 0
c(1,1,6,7) 0
q(1,1,6,7) 0
c(1,1,6,8) 0
q(1,1,6,8) 0
c(1,1,6,9) 0
q(1,1,6,9) 0
c(1,1,7,7) 0
q(1,1,7,7) 0
c(1,1,7,8) 0
q(1,1,7,8) 0
c(1,1,7,9) 0
q(1,1,7,9) 0
c(1,1,8,8) 0
q(1,1,8,8) 0
c(1,1,8,9) 0
q(1,1,8,9) 0
c(1,1,9,9) 0
q(1,1,9,9) 0
c(1,2,0,0) 0
q(1,2,0,0) 0
c(1,2,0,1) 1
q(1,2,0,1) 2
c(1,2,0,2) 0
q(1,2,0,2) 0
c(1,2,0,3) 0
q(1,2,0,3) 0
c(1,2,0,4) 0
q(1,2,0,4) 0
c(1,2,0,5) 0
q(1,2,0,5) 0
c(1,2,0,6) 0
q(1,2,0,6) 0
c(1,2,0,7) 0
q(1,2,0,7) 0
c(1,2,0,8) 0
q(1,2,0,8) 0
c(1,2,0,9) 0
q(1,2,0,9) 0
c(1,2,1,1) 0
q(1,2,1,1) 2
c(1,2,1,2) 0
q(1,2,1,2) 0
c(1,2,1,3) 0
q(1,2,1,3) 0
c(1,2,1,4) 0
q(1,2,1,4) 0
c(1,2,1,5) 0
q(1,2,1,5) 0
c(1,2,1,6) 0
q(1,2,1,6) 0
c(1,2,1,7) 0
q(1,2,1,7) 0
c(1,2,1,8) 0
q(1,2,1,8) 0
c(1,2,1,9) 0
q(1,2,1,9) 0
c(1,2,2,2) 0
q(1,2,2,2) 1
c(1,2,2,3) 0
q(1,2,2,3) 0
c(1,2,2,4) 0
q(1,2,2,4) 0
c(1,2,2,5) 0
q(1,2,2,5) 0
c(1,2,2,6) 0
q(1,2,2,6) 0
c(1,2,2,7) 0
q(1,2,2,7) 0
c(1,2,2,8) 0
q(1,2,2,8) 0
c(1,2,2,9) 0
q(1,2,2,9) 0
c(1,2,3,3) 0
q(1,2,3,3) 0
c(1,2,3,4) 0
q(1,2,3,4) 0
c(1,2,3,5) 0
q(1,2,3,5) 0
c(1,2,3,6) 0
q(1,2,3,6) 0
c(1,2,3,7) 0
q(1,2,3,7) 0
c(1,2,3,8) 0
q(1,2,3,8) 0
c(1,2,3,9) 0
q(1,2,3,9) 0
c(1,2,4,4) 0
q(1,2,4,4) 0
c(1,2,4,5) 0
q(1,2,4,5) 0
c(1,2,4,6) 0
q(1,2,4,6) 0
c(1,2,4,7) 0
q(1,2,4,7) 0
c(1,2,4,8) 0
q(1,2,4,8) 0
c(1,2,4,9) 0
q(1,2,4,9) 0
c(1,2,5,5) 0
q(1,2,5,5) 0
c(1,2,5,6) 0
q(1,2,5,6) 0
c(1,2,5,7) 0
q(1,2,5,7) 0
c(1,2,5,8) 0
q(1,2,5,8) 0
c(1,2,5,9) 0
q(1,2,5,9) 0
c(1,2,6,6) 0
q(1,2,6,6) 0
c(1,2,6,7) 0
q(1,2,6,7) 0
c(1,2,6,8) 0
q(1,2,6,8) 0
c(1,2,6,9) 0
q(1,2,6,9) 0
c(1,2,7,7) 0
q(1,2,7,7) 0
c(1,2,7,8) 0
q(1,2,7,8) 0
c(1,2,7,9) 0
q(1,2,7,9) 0
c(1,2,8,8) 0
q(1,2,8,8) 0
c(1,2,8,9) 0
q(1,2,8,9) 0
c(1,2,9,9) 0
q(1,2,9,9) 0
c(2,0,0,0) 0
q(2,0,0,0) 0
c(2,0,0,1) 0
q(2,0,0,1) 0
c(2,0,0,2) 0
q(2,0,0,2) 0
c(2,0,0,3) 0
q(2,0,0,3) 0
c(2,0,0,4) 0
q(2,0,0,4) 0
c(2,0,0,5) 0
q(2,0,0,5) 0
c(2,0,0,6) 0
q(2,0,0,6) 0
c(2,0,0,7) 0
q(2,0,0,7) 0
c(2,0,0,8) 0
q(2,0,0,8) 0
c(2,0,0,9) 0
q(2,0,0,9) 0
c(2,0,1,1) 0
q(2,0,1,1) 0
c(2,0,1,2) 0
q(2,0,1,2) 0
c(2,0,1,3) 0
q(2,0,1,3) 0
c(2,0,1,4) 0
q(2,0,1,4) 0
c(2,0,1,5) 0
q(2,0,1,5) 0
c(2,0,1,6) 0
q(2,0,1,6) 0
c(2,0,1,7) 0
q(2,0,1,7) 0
c(2,0,1,8) 0
q(2,0,1,8) 0
c(2,0,1,9) 0
q(2,0,1,9) 0
c(2,0,2,2) 0
q(2,0,2,2) 0
c(2,0,2,3) 0
q(2,0,2,3) 0
c(2,0,2,4) 0
q(2,0,2,4) 0
c(2,0,2,5) 0
q(2,0,2,5) 0
c(2,0,2,6) 0
q(2,0,2,6) 0
c(2,0,2,7) 0
q(2,0,2,7) 0
c(2,0,2,8) 0
q(2,0,2,8) 0
c(2,0,2,9) 0
q(2,0,2,9) 0
c(2,0,3,3) 0
q(2,0,3,3) 0
c(2,0,3,4) 0
q(2,0,3,4) 0
c(2,0,3,5) 0
q(2,0,3,5) 0
c(2,0,3,6) 0
q(2,0,3,6) 0
c(2,0,3,7) 0
q(2,0,3,7) 0
c(2,0,3,8) 0
q(2,0,3,8) 0
c(2,0,3,9) 0
q(2,0,3,9) 0
c(2,0,4,4) 0
q(2,0,4,4) 0
c(2,0,4,5) 0
q(2,0,4,5) 0
c(2,0,4,6) 0
q(2,0,4,6) 0
c(2,0,4,7) 0
q(2,0,4,7) 0
c(2,0,4,8) 0
q(2,0,4,8) 0
c(2,0,4,9) 0
q(2,0,4,9) 0
c(2,0,5,5) 0
q(2,0,5,5) 0
c(2,0,5,6) 0
q(2,0,5,6) 0
c(2,0,5,7) 0
q(2,0,5,7) 0
c(2,0,5,8) 0
q(2,0,5,8) 0
c(2,0,5,9) 0
q(2,0,5,9) 0
c(2,0,6,6) 0
q(2,0,6,6) 0
c(2,0,6,7) 0
q(2,0,6,7) 0
c(2,0,6,8) 0
q(2,0,6,8) 0
c(2,0,6,9) 0
q(2,0,6,9) 0
c(2,0,7,7) 0
q(2,0,7,7) 0
c(2,0,7,8) 0
q(2,0,7,8) 0
c(2,0,7,9) 0
q(2,0,7,9) 0
c(2,0,8,8) 0
q(2,0,8,8) 0
c(2,0,8,9) 0
q(2,0,8,9) 0
c(2,0,9,9) 0
q(2,0,9,9) 0
c(2,1,0,0) 2
q(2,1,0,0) 2
c(2,1,0,1) 0
q(2,1,0,1) 0
c(2,1,0,2) 0
q(2,1,0,2) 0
c(2,1,0,3) 0
q(2,1,0,3) 0
c(2,1,0,4) 0
q(2,1,0,4) 0
c(2,1,0,5) 0
q(2,1,0,5) 0
c(2,1,0,6) 0
q(2,1,0,6) 0
c(2,1,0,7) 0
q(2,1,0,7) 0
c(2,1,0,8) 0
q(2,1,0,8) 0
c(2,1,0,9) 0
q(2,1,0,9) 0
c(2,1,1,1) 0
q(2,1,1,1) 0
c(2,1,1,2) 0
q(2,1,1,2) 0
c(2,1,1,3) 0
q(2,1,1,3) 0
c(2,1,1,4) 0
q(2,1,1,4) 0
c(2,1,1,5) 0
q(2,1,1,5) 0
c(2,1,1,6) 0
q(2,1,1,6) 0
c(2,1,1,7) 0
q(2,1,1,7) 0
c(2,1,1,8) 0
q(2,1,1,8) 0
c(2,1,1,9) 0
q(2,1,1,9) 0
c(2,1,2,2) 0
q(2,1,2,2) 0
c(2,1,2,3) 0
q(2,1,2,3) 0
c(2,1,2,4) 0
q(2,1,2,4) 0
c(2,1,2,5) 0
q(2,1,2,5) 0
c(2,1,2,6) 0
q(2,1,2,6) 0
c(2,1,2,7) 0
q(2,1,2,7) 0
c(2,1,2,8) 0
q(2,1,2,8) 0
c(2,1,2,9) 0
q(2,1,2,9) 0
c(2,1,3,3) 0
q(2,1,3,3) 0
c(2,1,3,4) 0
q(2,1,3,4) 0
c(2,1,3,5) 0
q(2,1,3,5) 0
c(2,1,3,6) 0
q(2,1,3,6) 0
c(2,1,3,7) 0
q(2,1,3,7) 0
c(2,1,3,8) 0
q(2,1,3,8) 0
c(2,1,3,9) 0
q(2,1,3,9) 0
c(2,1,4,4) 0
q(2,1,4,4) 0
c(2,1,4,5) 0
q(2,1,4,5) 0
c(2,1,4,6) 0
q(2,1,4,6) 0
c(2,1,4,7) 0
q(2,1,4,7) 0
c(2,1,4,8) 0
q(2,1,4,8) 0
c(2,1,4,9) 0
q(2,1,4,9) 0
c(2,1,5,5) 0
q(2,1,5,5) 0
c(2,1,5,6) 0
q(2,1,5,6) 0
c(2,1,5,7) 0
q(2,1,5,7) 0
c(2,1,5,8) 0
q(2,1,5,8) 0
c(2,1,5,9) 0
q(2,1,5,9) 0
c(2,1,6,6) 0
q(2,1,6,6) 0
c(2,1,6,7) 0
q(2,1,6,7) 0
c(2,1,6,8) 0
q(2,1,6,8) 0
c(2,1,6,9) 0
q(2,1,6,9) 0
c(2,1,7,7) 0
q(2,1,7,7) 0
c(2,1,7,8) 0
q(2,1,7,8) 0
c(2,1,7,9) 0
q(2,1,7,9) 0
c(2,1,8,8) 0
q(2,1,8,8) 0
c(2,1,8,9) 0
q(2,1,8,9) 0
c(2,1,9,9) 0
q(2,1,9,9) 0
c(2,2,0,0) 0
q(2,2,0,0) 0
c(2,2,0,1) 0
q(2,2,0,1) 2
c(2,2,0,2) 0
q(2,2,0,2) 0
c(2,2,0,3) 0
q(2,2,0,3) 0
c(2,2,0,4) 0
q(2,2,0,4) 0
c(2,2,0,5) 0
q(2,2,0,5) 0
c(2,2,0,6) 0
q(2,2,0,6) 0
c(2,2,0,7) 0
q(2,2,0,7) 0
c(2,2,0,8) 0
q(2,2,0,8) 0
c(2,2,0,9) 0
q(2,2,0,9) 0
c(2,2,1,1) 0
q(2,2,1,1) 0
c(2,2,1,2) 0
q(2,2,1,2) 0
c(2,2,1,3) 0
q(2,2,1,3) 0
c(2,2,1,4) 0
q(2,2,1,4) 0
c(2,2,1,5) 0
q(2,2,1,5) 0
c(2,2,1,6) 0
q(2,2,1,6) 0
c(2,2,1,7) 0
q(2,2,1,7) 0
c(2,2,1,8) 0
q(2,2,1,8) 0
c(2,2,1,9) 0
q(2,2,1,9) 0
c(2,2,2,2) 0
q(2,2,2,2) 0
c(2,2,2,3) 0
q(2,2,2,3) 0
c(2,2,2,4) 0
q(2,2,2,4) 0
c(2,2,2,5) 0
q(2,2,2,5) 0
c(2,2,2,6) 0
q(2,2,2,6) 0
c(2,2,2,7) 0
q(2,2,2,7) 0
c(2,2,2,8) 0
q(2,2,2,8) 0
c(2,2,2,9) 0
q(2,2,2,9) 0
c(2,2,3,3) 0
q(2,2,3,3) 0
c(2,2,3,4) 0
q(2,2,3,4) 0
c(2,2,3,5) 0
q(2,2,3,5) 0
c(2,2,3,6) 0
q(2,2,3,6) 0
c(2,2,3,7) 0
q(2,2,3,7) 0
c(2,2,3,8) 0
q(2,2,3,8) 0
c(2,2,3,9) 0
q(2,2,3,9) 0
c(2,2,4,4) 0
q(2,2,4,4) 0
c(2,2,4,5) 0
q(2,2,4,5) 0
c(2,2,4,6) 0
q(2,2,4,6) 0
c(2,2,4,7) 0
q(2,2,4,7) 0
c(2,2,4,8) 0
q(2,2,4,8) 0
c(2,2,4,9) 0
q(2,2,4,9) 0
c(2,2,5,5) 0
q(2,2,5,5) 0
c(2,2,5,6) 0
q(2,2,5,6) 0
c(2,2,5,7) 0
q(2,2,5,7) 0
c(2,2,5,8) 0
q(2,2,5,8) 0
c(2,2,5,9) 0
q(2,2,5,9) 0
c(2,2,6,6) 0
q(2,2,6,6) 0
c(2,2,6,7) 0
q(2,2,6,7) 0
c(2,2,6,8) 0
q(2,2,6,8) 0
c(2,2,6,9) 0
q(2,2,6,9) 0
c(2,2,7,7) 0
q(2,2,7,7) 0
c(2,2,7,8) 0
q(2,2,7,8) 0
c(2,2,7,9) 0
q(2,2,7,9) 0
c(2,2,8,8) 0
q(2,2,8,8) 0
c(2,2,8,9) 0
q(2,2,8,9) 0
c(2,2,9,9) 0
q(2,2,9,9) 0
b(0,0) 2
u_A(0,0) 2
u_B(0,0) 0
b(0,1) 2
u_A(0,1) 2
u_B(0,1) 0
b(0,2) 2
u_A(0,2) 0
u_B(0,2) 0
b(1,0) 2
u_A(1,0) 2
u_B(1,0) 0
b(1,1) 2
u_A(1,1) 2
u_B(1,1) 0
b(1,2) 1
u_A(1,2) 0
u_B(1,2) 0
b(2,0) 0
u_A(2,0) 0
u_B(2,0) 0
b(2,1) 2
u_A(2,1) 2
u_B(2,1) 0
b(2,2) 0
u_A(2,2) 0
u_B(2,2) 0
x(0,0,0,0) 1
x(0,0,0,1) 0
x(0,0,0,2) 1
x(0,0,0,3) 0
x(0,0,0,4) 0
x(0,0,0,5) 0
x(0,1,0,0) 0
x(0,1,0,1) 0
x(0,1,0,2) 0
x(0,1,0,3) 0
x(0,1,0,4) 0
x(0,1,0,5) 0
x(0,2,0,0) 0
x(0,2,0,1) 0
x(0,2,0,2) 0
x(0,2,0,3) 0
x(0,2,0,4) 0
x(0,2,0,5) 0
x(0,3,0,0) 0
x(0,3,0,1) 0
x(0,3,0,2) 0
x(0,3,0,3) 0
x(0,3,0,4) 0
x(0,3,0,5) 0
x(0,4,0,0) 0
x(0,4,0,1) 0
x(0,4,0,2) 0
x(0,4,0,3) 0
x(0,4,0,4) 0
x(0,4,0,5) 0
x(0,5,0,0) 0
x(0,5,0,1) 0
x(0,5,0,2) 0
x(0,5,0,3) 0
x(0,5,0,4) 0
x(0,5,0,5) 0
x(0,6,0,0) 0
x(0,6,0,1) 0
x(0,6,0,2) 0
x(0,6,0,3) 0
x(0,6,0,4) 0
x(0,6,0,5) 0
x(0,7,0,0) 0
x(0,7,0,1) 0
x(0,7,0,2) 0
x(0,7,0,3) 0
x(0,7,0,4) 0
x(0,7,0,5) 0
x(0,8,0,0) 0
x(0,8,0,1) 0
x(0,8,0,2) 0
x(0,8,0,3) 0
x(0,8,0,4) 0
x(0,8,0,5) 0
x(0,9,0,0) 0
x(0,9,0,1) 0
x(0,9,0,2) 0
x(0,9,0,3) 0
x(0,9,0,4) 0
x(0,9,0,5) 0
x(1,0,0,0) 0
x(1,0,0,1) 0
x(1,0,0,2) 0
x(1,0,0,3) 0
x(1,0,0,4) 0
x(1,0,0,5) 1
x(1,1,0,0) 1
x(1,1,0,1) 0
x(1,1,0,2) 1
x(1,1,0,3) 0
x(1,1,0,4) 0
x(1,1,0,5) 0
x(1,2,0,0) 0
x(1,2,0,1) 0
x(1,2,0,2) 0
x(1,2,0,3) 0
x(1,2,0,4) 0
x(1,2,0,5) 0
x(1,3,0,0) 0
x(1,3,0,1) 0
x(1,3,0,2) 0
x(1,3,0,3) 0
x(1,3,0,4) 0
x(1,3,0,5) 0
x(1,4,0,0) 0
x(1,4,0,1) 0
x(1,4,0,2) 0
x(1,4,0,3) 0
x(1,4,0,4) 0
x(1,4,0,5) 0
x(1,5,0,0) 0
x(1,5,0,1) 0
x(1,5,0,2) 0
x(1,5,0,3) 0
x(1,5,0,4) 0
x(1,5,0,5) 0
x(1,6,0,0) 0
x(1,6,0,1) 0
x(1,6,0,2) 0
x(1,6,0,3) 0
x(1,6,0,4) 0
x(1,6,0,5) 0
x(1,7,0,0) 0
x(1,7,0,1) 0
x(1,7,0,2) 0
x(1,7,0,3) 0
x(1,7,0,4) 0
x(1,7,0,5) 0
x(1,8,0,0) 0
x(1,8,0,1) 0
x(1,8,0,2) 0
x(1,8,0,3) 0
x(1,8,0,4) 0
x(1,8,0,5) 0
x(1,9,0,0) 0
x(1,9,0,1) 0
x(1,9,0,2) 0
x(1,9,0,3) 0
x(1,9,0,4) 0
x(1,9,0,5) 0
x(2,0,0,0) 0
x(2,0,0,1) 0
x(2,0,0,2) 0
x(2,0,0,3) 0
x(2,0,0,4) 0
x(2,0,0,5) 0
x(2,1,0,0) 0
x(2,1,0,1) 0
x(2,1,0,2) 1
x(2,1,0,3) 0
x(2,1,0,4) 0
x(2,1,0,5) 0
x(2,2,0,0) 1
x(2,2,0,1) 0
x(2,2,0,2) 0
x(2,2,0,3) 0
x(2,2,0,4) 0
x(2,2,0,5) 0
x(2,3,0,0) 0
x(2,3,0,1) 0
x(2,3,0,2) 0
x(2,3,0,3) 0
x(2,3,0,4) 0
x(2,3,0,5) 0
x(2,4,0,0) 0
x(2,4,0,1) 0
x(2,4,0,2) 0
x(2,4,0,3) 0
x(2,4,0,4) 0
x(2,4,0,5) 0
x(2,5,0,0) 0
x(2,5,0,1) 0
x(2,5,0,2) 0
x(2,5,0,3) 0
x(2,5,0,4) 0
x(2,5,0,5) 0
x(2,6,0,0) 0
x(2,6,0,1) 0
x(2,6,0,2) 0
x(2,6,0,3) 0
x(2,6,0,4) 0
x(2,6,0,5) 0
x(2,7,0,0) 0
x(2,7,0,1) 0
x(2,7,0,2) 0
x(2,7,0,3) 0
x(2,7,0,4) 0
x(2,7,0,5) 0
x(2,8,0,0) 0
x(2,8,0,1) 0
x(2,8,0,2) 0
x(2,8,0,3) 0
x(2,8,0,4) 0
x(2,8,0,5) 0
x(2,9,0,0) 0
x(2,9,0,1) 0
x(2,9,0,2) 0
x(2,9,0,3) 0
x(2,9,0,4) 0
x(2,9,0,5) 0
